584.02,64.47,73.63
542.53,69.4,79.26
583.8,64.49,73.66
568.48,66.23,75.64
580.77,64.83,74.04
512.37,73.49,83.93
578.3,65.11,74.36
553.46,68.03,77.7
528.42,71.25,81.38
582.3,64.66,73.85
582.54,64.63,73.82
658.03,57.22,65.35
577.4,65.21,74.48
558.31,67.44,77.02
559.88,67.25,76.81
557.94,67.48,77.07
605.95,62.14,70.97
556.74,67.63,77.24
589.51,63.87,72.95
551.88,68.22,77.92
